NAME 
ROWS
 N  OBJ
 L  R0      
 L  R1      
 E  R2      
 E  R3      
 E  R4      
 E  R5      
 E  R6      
 E  R7      
 E  R8      
 E  R9      
 E  R10     
 E  R11     
COLUMNS
    MARKER    'MARKER'                 'INTORG'
    I0(6)     OBJ       32
    I0(6)     R0        98
    I0(6)     R1        38
    I0(6)     R2        18
    I0(6)     R4        2
    I0(6)     R7        2
    I0(6)     R11       1
    I1(4)     OBJ       69
    I1(4)     R0        196
    I1(4)     R1        -106
    I1(4)     R5        15
    I1(4)     R11       1
    I2(8)     OBJ       188
    I2(8)     R0        -38
    I2(8)     R1        -146
    I2(8)     R2        7
    I2(8)     R3        7
    I2(8)     R4        17
    I2(8)     R5        15
    I2(8)     R7        10
    I2(8)     R11       1
    I3(8)     OBJ       -108
    I3(8)     R0        162
    I3(8)     R1        -115
    I3(8)     R2        10
    I3(8)     R3        5
    I3(8)     R5        15
    I3(8)     R6        1
    I3(8)     R7        13
    I3(8)     R11       1
    I4(4)     OBJ       20
    I4(4)     R0        -18
    I4(4)     R1        -33
    I4(4)     R3        18
    I4(4)     R11       1
    I5(5)     OBJ       -92
    I5(5)     R0        -73
    I5(5)     R1        -74
    I5(5)     R3        8
    I5(5)     R5        17
    I5(5)     R11       1
    MARKER    'MARKER'                 'INTEND'
    C6(5)     OBJ       1
    C6(5)     R0        3
    C6(5)     R1        -9
    C6(5)     R5        9
    C6(5)     R9        10
    C6(5)     R10       14
    C7(6)     OBJ       8
    C7(6)     R0        -9
    C7(6)     R1        6
    C7(6)     R2        1
    C7(6)     R6        18
    C7(6)     R7        -1
    C7(6)     R9        18
    C8(4)     OBJ       2
    C8(4)     R2        15
    C8(4)     R3        13
    C8(4)     R5        15
    C8(4)     R10       17
    C9(7)     OBJ       -3
    C9(7)     R0        -8
    C9(7)     R2        14
    C9(7)     R5        2
    C9(7)     R6        2
    C9(7)     R7        16
    C9(7)     R8        2
    C9(7)     R9        11
    C10(1)    R2        1
    C11(1)    R3        1
    C12(1)    R4        1
    C13(1)    R5        1
    C14(1)    R6        1
    C15(1)    R7        1
    C16(1)    R8        1
    C17(1)    R9        1
    C18(1)    R10       1
    C19(1)    R11       1
RHS
    RHS1      R0        63.5
    RHS1      R1        -189
    RHS1      R2        81
    RHS1      R3        90
    RHS1      R4        88
    RHS1      R5        60
    RHS1      R6        94
    RHS1      R7        64
    RHS1      R8        59
    RHS1      R9        97
    RHS1      R10       50
    RHS1      R11       2
BOUNDS
 UP BND1      I0(6)     1
 UP BND1      I1(4)     1
 UP BND1      I2(8)     1
 UP BND1      I3(8)     1
 UP BND1      I4(4)     1
 UP BND1      I5(5)     1
ENDATA
